c Generated map
c Size: 12 * 12, weights in range: 1 to 10, walls: True, with ratio 0.05
c dim 4 of 5
c
p sp 144 237
c graph contains 144 nodes and 237 arcs
c
a 1 13 3
a 13 1 3
a 1 2 1
a 2 1 1
a 2 14 1
a 14 2 1
a 2 3 5
a 3 2 5
a 3 15 4
a 15 3 4
a 3 4 1
a 4 3 1
a 4 16 3
a 16 4 3
a 4 5 10
a 5 4 10
a 5 17 9
a 17 5 9
a 5 6 2
a 6 5 2
a 6 18 6
a 18 6 6
a 6 7 10
a 7 6 10
a 7 19 5
a 19 7 5
a 7 8 4
a 8 7 4
a 8 20 9
a 20 8 9
a 8 9 5
a 9 8 5
a 9 21 3
a 21 9 3
a 9 10 1
a 10 9 1
a 10 11 7
a 11 10 7
a 11 23 3
a 23 11 3
a 11 12 2
a 12 11 2
a 12 24 8
a 24 12 8
a 13 25 6
a 25 13 6
a 13 14 6
a 14 13 6
a 14 26 5
a 26 14 5
a 14 15 3
a 15 14 3
a 15 27 7
a 27 15 7
a 15 16 7
a 16 15 7
a 16 28 1
a 28 16 1
a 16 17 6
a 17 16 6
a 17 29 9
a 29 17 9
a 17 18 6
a 18 17 6
a 18 30 7
a 30 18 7
a 18 19 2
a 19 18 2
a 19 31 2
a 31 19 2
a 19 20 7
a 20 19 7
a 20 32 4
a 32 20 4
a 20 21 3
a 21 20 3
a 21 33 1
a 33 21 1
a 23 35 7
a 35 23 7
a 23 24 7
a 24 23 7
a 25 37 7
a 37 25 7
a 25 26 9
a 26 25 9
a 26 38 9
a 38 26 9
a 26 27 9
a 27 26 9
a 27 39 9
a 39 27 9
a 27 28 8
a 28 27 8
a 28 40 10
a 40 28 10
a 28 29 5
a 29 28 5
a 29 41 7
a 41 29 7
a 29 30 1
a 30 29 1
a 30 42 8
a 42 30 8
a 30 31 4
a 31 30 4
a 31 32 1
a 32 31 1
a 32 44 1
a 44 32 1
a 32 33 9
a 33 32 9
a 33 45 3
a 45 33 3
a 33 34 10
a 34 33 10
a 34 46 4
a 46 34 4
a 34 35 6
a 35 34 6
a 35 47 4
a 47 35 4
a 37 49 10
a 49 37 10
a 37 38 7
a 38 37 7
a 38 50 8
a 50 38 8
a 38 39 5
a 39 38 5
a 39 40 4
a 40 39 4
a 40 52 1
a 52 40 1
a 40 41 6
a 41 40 6
a 41 53 10
a 53 41 10
a 41 42 6
a 42 41 6
a 44 56 3
a 56 44 3
a 44 45 6
a 45 44 6
a 45 57 7
a 57 45 7
a 45 46 10
a 46 45 10
a 46 58 2
a 58 46 2
a 46 47 1
a 47 46 1
a 47 59 10
a 59 47 10
a 47 48 3
a 48 47 3
a 48 60 1
a 60 48 1
a 49 61 2
a 61 49 2
a 49 50 1
a 50 49 1
a 50 62 7
a 62 50 7
a 52 64 7
a 64 52 7
a 52 53 1
a 53 52 1
a 53 65 5
a 65 53 5
a 55 56 4
a 56 55 4
a 56 68 10
a 68 56 10
a 56 57 6
a 57 56 6
a 57 69 7
a 69 57 7
a 57 58 3
a 58 57 3
a 58 70 2
a 70 58 2
a 58 59 9
a 59 58 9
a 59 71 9
a 71 59 9
a 59 60 10
a 60 59 10
a 60 72 10
a 72 60 10
a 61 73 2
a 73 61 2
a 61 62 9
a 62 61 9
a 62 74 8
a 74 62 8
a 62 63 2
a 63 62 2
a 63 75 3
a 75 63 3
a 63 64 7
a 64 63 7
a 64 76 9
a 76 64 9
a 64 65 7
a 65 64 7
a 65 77 8
a 77 65 8
a 65 66 10
a 66 65 10
a 66 78 2
a 78 66 2
a 68 80 4
a 80 68 4
a 68 69 9
a 69 68 9
a 69 81 9
a 81 69 9
a 69 70 1
a 70 69 1
a 70 82 7
a 82 70 7
a 70 71 7
a 71 70 7
a 71 83 9
a 83 71 9
a 71 72 8
a 72 71 8
a 72 84 4
a 84 72 4
a 73 85 4
a 85 73 4
a 73 74 6
a 74 73 6
a 74 86 2
a 86 74 2
a 74 75 10
a 75 74 10
a 75 76 4
a 76 75 4
a 76 88 1
a 88 76 1
a 76 77 2
a 77 76 2
a 77 89 8
a 89 77 8
a 77 78 9
a 78 77 9
a 78 90 9
a 90 78 9
a 78 79 6
a 79 78 6
a 79 91 2
a 91 79 2
a 79 80 8
a 80 79 8
a 80 92 7
a 92 80 7
a 80 81 10
a 81 80 10
a 81 93 10
a 93 81 10
a 81 82 8
a 82 81 8
a 82 94 7
a 94 82 7
a 82 83 2
a 83 82 2
a 83 95 8
a 95 83 8
a 83 84 1
a 84 83 1
a 84 96 6
a 96 84 6
a 85 97 9
a 97 85 9
a 85 86 3
a 86 85 3
a 86 98 9
a 98 86 9
a 88 100 7
a 100 88 7
a 88 89 9
a 89 88 9
a 89 101 5
a 101 89 5
a 89 90 1
a 90 89 1
a 90 102 1
a 102 90 1
a 90 91 2
a 91 90 2
a 91 103 10
a 103 91 10
a 91 92 5
a 92 91 5
a 92 104 8
a 104 92 8
a 92 93 2
a 93 92 2
a 93 105 10
a 105 93 10
a 93 94 5
a 94 93 5
a 94 106 6
a 106 94 6
a 94 95 1
a 95 94 1
a 95 107 1
a 107 95 1
a 95 96 8
a 96 95 8
a 96 108 10
a 108 96 10
a 97 109 3
a 109 97 3
a 97 98 3
a 98 97 3
a 98 110 10
a 110 98 10
a 98 99 5
a 99 98 5
a 99 111 10
a 111 99 10
a 99 100 2
a 100 99 2
a 100 112 2
a 112 100 2
a 100 101 10
a 101 100 10
a 101 113 6
a 113 101 6
a 101 102 3
a 102 101 3
a 102 114 7
a 114 102 7
a 102 103 8
a 103 102 8
a 103 115 8
a 115 103 8
a 103 104 2
a 104 103 2
a 104 116 1
a 116 104 1
a 104 105 10
a 105 104 10
a 105 117 5
a 117 105 5
a 105 106 3
a 106 105 3
a 106 118 2
a 118 106 2
a 106 107 7
a 107 106 7
a 107 119 6
a 119 107 6
a 107 108 3
a 108 107 3
a 108 120 1
a 120 108 1
a 109 121 6
a 121 109 6
a 109 110 6
a 110 109 6
a 110 122 10
a 122 110 10
a 110 111 1
a 111 110 1
a 111 123 2
a 123 111 2
a 111 112 2
a 112 111 2
a 112 124 5
a 124 112 5
a 112 113 5
a 113 112 5
a 113 125 4
a 125 113 4
a 113 114 8
a 114 113 8
a 114 126 5
a 126 114 5
a 114 115 2
a 115 114 2
a 115 127 1
a 127 115 1
a 115 116 1
a 116 115 1
a 116 128 5
a 128 116 5
a 116 117 8
a 117 116 8
a 117 129 8
a 129 117 8
a 117 118 8
a 118 117 8
a 118 130 6
a 130 118 6
a 118 119 9
a 119 118 9
a 119 131 8
a 131 119 8
a 119 120 1
a 120 119 1
a 120 132 2
a 132 120 2
a 121 133 10
a 133 121 10
a 121 122 1
a 122 121 1
a 122 134 5
a 134 122 5
a 122 123 8
a 123 122 8
a 123 135 2
a 135 123 2
a 123 124 2
a 124 123 2
a 124 136 7
a 136 124 7
a 124 125 6
a 125 124 6
a 125 137 8
a 137 125 8
a 125 126 6
a 126 125 6
a 126 138 10
a 138 126 10
a 126 127 9
a 127 126 9
a 127 139 9
a 139 127 9
a 127 128 9
a 128 127 9
a 128 140 5
a 140 128 5
a 128 129 8
a 129 128 8
a 129 141 7
a 141 129 7
a 129 130 8
a 130 129 8
a 130 142 6
a 142 130 6
a 130 131 1
a 131 130 1
a 131 143 3
a 143 131 3
a 131 132 2
a 132 131 2
a 132 144 7
a 144 132 7
a 133 134 10
a 134 133 10
a 134 135 9
a 135 134 9
a 135 136 5
a 136 135 5
a 136 137 8
a 137 136 8
a 137 138 6
a 138 137 6
a 138 139 9
a 139 138 9
a 139 140 7
a 140 139 7
a 140 141 2
a 141 140 2
a 141 142 6
a 142 141 6
a 142 143 5
a 143 142 5
a 143 144 4
a 144 143 4
